c Generated map
c Size: 10 * 10, weights in range: 1 to 10, walls: False, with ratio 0.0
c dim 4 of 6
c
p sp 100 180
c graph contains 100 nodes and 180 arcs
c
a 1 11 3
a 11 1 3
a 1 2 3
a 2 1 3
a 2 12 8
a 12 2 8
a 2 3 4
a 3 2 4
a 3 13 5
a 13 3 5
a 3 4 1
a 4 3 1
a 4 14 3
a 14 4 3
a 4 5 9
a 5 4 9
a 5 15 5
a 15 5 5
a 5 6 4
a 6 5 4
a 6 16 8
a 16 6 8
a 6 7 3
a 7 6 3
a 7 17 4
a 17 7 4
a 7 8 2
a 8 7 2
a 8 18 6
a 18 8 6
a 8 9 5
a 9 8 5
a 9 19 9
a 19 9 9
a 9 10 9
a 10 9 9
a 10 20 1
a 20 10 1
a 11 21 6
a 21 11 6
a 11 12 5
a 12 11 5
a 12 22 10
a 22 12 10
a 12 13 2
a 13 12 2
a 13 23 5
a 23 13 5
a 13 14 4
a 14 13 4
a 14 24 8
a 24 14 8
a 14 15 3
a 15 14 3
a 15 25 7
a 25 15 7
a 15 16 8
a 16 15 8
a 16 26 1
a 26 16 1
a 16 17 3
a 17 16 3
a 17 27 8
a 27 17 8
a 17 18 6
a 18 17 6
a 18 28 2
a 28 18 2
a 18 19 9
a 19 18 9
a 19 29 6
a 29 19 6
a 19 20 9
a 20 19 9
a 20 30 1
a 30 20 1
a 21 31 6
a 31 21 6
a 21 22 1
a 22 21 1
a 22 32 2
a 32 22 2
a 22 23 10
a 23 22 10
a 23 33 9
a 33 23 9
a 23 24 8
a 24 23 8
a 24 34 6
a 34 24 6
a 24 25 9
a 25 24 9
a 25 35 6
a 35 25 6
a 25 26 7
a 26 25 7
a 26 36 9
a 36 26 9
a 26 27 2
a 27 26 2
a 27 37 10
a 37 27 10
a 27 28 4
a 28 27 4
a 28 38 4
a 38 28 4
a 28 29 7
a 29 28 7
a 29 39 4
a 39 29 4
a 29 30 6
a 30 29 6
a 30 40 8
a 40 30 8
a 31 41 1
a 41 31 1
a 31 32 2
a 32 31 2
a 32 42 7
a 42 32 7
a 32 33 7
a 33 32 7
a 33 43 8
a 43 33 8
a 33 34 2
a 34 33 2
a 34 44 5
a 44 34 5
a 34 35 3
a 35 34 3
a 35 45 6
a 45 35 6
a 35 36 7
a 36 35 7
a 36 46 3
a 46 36 3
a 36 37 3
a 37 36 3
a 37 47 2
a 47 37 2
a 37 38 1
a 38 37 1
a 38 48 10
a 48 38 10
a 38 39 6
a 39 38 6
a 39 49 1
a 49 39 1
a 39 40 6
a 40 39 6
a 40 50 4
a 50 40 4
a 41 51 1
a 51 41 1
a 41 42 2
a 42 41 2
a 42 52 2
a 52 42 2
a 42 43 3
a 43 42 3
a 43 53 6
a 53 43 6
a 43 44 6
a 44 43 6
a 44 54 8
a 54 44 8
a 44 45 9
a 45 44 9
a 45 55 6
a 55 45 6
a 45 46 7
a 46 45 7
a 46 56 3
a 56 46 3
a 46 47 2
a 47 46 2
a 47 57 9
a 57 47 9
a 47 48 10
a 48 47 10
a 48 58 5
a 58 48 5
a 48 49 7
a 49 48 7
a 49 59 5
a 59 49 5
a 49 50 7
a 50 49 7
a 50 60 4
a 60 50 4
a 51 61 1
a 61 51 1
a 51 52 2
a 52 51 2
a 52 62 10
a 62 52 10
a 52 53 1
a 53 52 1
a 53 63 10
a 63 53 10
a 53 54 10
a 54 53 10
a 54 64 5
a 64 54 5
a 54 55 4
a 55 54 4
a 55 65 2
a 65 55 2
a 55 56 4
a 56 55 4
a 56 66 3
a 66 56 3
a 56 57 8
a 57 56 8
a 57 67 5
a 67 57 5
a 57 58 4
a 58 57 4
a 58 68 3
a 68 58 3
a 58 59 10
a 59 58 10
a 59 69 6
a 69 59 6
a 59 60 3
a 60 59 3
a 60 70 7
a 70 60 7
a 61 71 4
a 71 61 4
a 61 62 6
a 62 61 6
a 62 72 3
a 72 62 3
a 62 63 4
a 63 62 4
a 63 73 7
a 73 63 7
a 63 64 8
a 64 63 8
a 64 74 8
a 74 64 8
a 64 65 10
a 65 64 10
a 65 75 2
a 75 65 2
a 65 66 2
a 66 65 2
a 66 76 8
a 76 66 8
a 66 67 3
a 67 66 3
a 67 77 9
a 77 67 9
a 67 68 5
a 68 67 5
a 68 78 4
a 78 68 4
a 68 69 10
a 69 68 10
a 69 79 9
a 79 69 9
a 69 70 1
a 70 69 1
a 70 80 4
a 80 70 4
a 71 81 8
a 81 71 8
a 71 72 9
a 72 71 9
a 72 82 8
a 82 72 8
a 72 73 1
a 73 72 1
a 73 83 6
a 83 73 6
a 73 74 2
a 74 73 2
a 74 84 7
a 84 74 7
a 74 75 4
a 75 74 4
a 75 85 1
a 85 75 1
a 75 76 2
a 76 75 2
a 76 86 3
a 86 76 3
a 76 77 9
a 77 76 9
a 77 87 8
a 87 77 8
a 77 78 5
a 78 77 5
a 78 88 9
a 88 78 9
a 78 79 3
a 79 78 3
a 79 89 4
a 89 79 4
a 79 80 5
a 80 79 5
a 80 90 2
a 90 80 2
a 81 91 4
a 91 81 4
a 81 82 8
a 82 81 8
a 82 92 6
a 92 82 6
a 82 83 1
a 83 82 1
a 83 93 3
a 93 83 3
a 83 84 5
a 84 83 5
a 84 94 1
a 94 84 1
a 84 85 2
a 85 84 2
a 85 95 2
a 95 85 2
a 85 86 10
a 86 85 10
a 86 96 3
a 96 86 3
a 86 87 10
a 87 86 10
a 87 97 6
a 97 87 6
a 87 88 3
a 88 87 3
a 88 98 4
a 98 88 4
a 88 89 6
a 89 88 6
a 89 99 9
a 99 89 9
a 89 90 8
a 90 89 8
a 90 100 1
a 100 90 1
a 91 92 2
a 92 91 2
a 92 93 8
a 93 92 8
a 93 94 1
a 94 93 1
a 94 95 10
a 95 94 10
a 95 96 2
a 96 95 2
a 96 97 2
a 97 96 2
a 97 98 3
a 98 97 3
a 98 99 3
a 99 98 3
a 99 100 2
a 100 99 2
